%chk=rhf_grad
#p RHF/6-31G nosymm SCF(VeryTight) Freq

RHF Gradient

0 1
O  0.0  0.0  0.0
O  0.0  0.0  1.5
H  1.5  0.0  0.0
H  0.0  0.7  1.5

