#t B3LYP-PBE0/6-31G Int(Grid=99302) Freq opt(verytight)

C6H6

0 1
O   0.419924    0.313051    0.028236
O   0.308827    0.032350    1.469229
H   1.030990   -0.383766   -0.234814
H   0.519896    0.900742    1.829086
