#t B3LYP-B3LYP/6-31G Int(Grid=75302) Freq opt

C6H6

0 1
O 0. 0. 0.
H 1. 0. 0.
H 0. 1. 0.
