#t B3LYP-XYG3/6-31G Int(Grid=99590) Freq

C6H6

0 1
O  0.0  0.0  0.0
O  0.0  0.0  1.5
H  1.5  0.0  0.0
H  0.0  0.7  1.5

XYG3 = 0.8033*HF - 0.0140*LDA + 0.2107*B88, 0.6789*LYP
