#p B3LYP-PBE0/6-31G Int(Grid=99590) Freq

C6H6

0 1
O  0.0  0.0  0.0
O  0.0  0.0  1.5
H  1.5  0.0  0.0
H  0.0  0.7  1.5
